39 40
29
3 3 36 0
3 4 4 0
3 5 9 4
3 6 13 34
3 7 13 27
3 8 5 32
3 9 9 9
3 10 36 30
3 11 36 19
3 15 36 3
4 3 17 16
4 4 0 0
4 5 5 25
4 6 5 19
4 8 17 19
4 9 13 18
4 12 9 18
4 15 0 4
4 16 17 0
5 3 0 37
5 4 7 0
5 5 16 27
5 6 0 31
5 8 16 32
5 10 8 30
5 11 0 19
5 13 4 5
5 18 12 0
15 39 21 1
